\ENCODING=ISO-8859-1
\Problem name: ilog.cplex

Minimize
 obj1: 108909 x1 + 104162 x2 + 103908 x3 + 91867 x4 + 108913 x5 + 103993 x6
       + 105945 x7 + 99311 x8 + 106665 x9 + 105299 x10 + 97524 x11 + 97229 x12
       + 90426 x13 + 103018 x14 + 101054 x15 + 98032 x16 + 99023 x17
       + 96915 x18 + 100321 x19 + 98851 x20 + 96904 x21 + 94342 x22
       + 109851 x23 + 99032 x24 + 100653 x25 + 100015 x26 + 94554 x27
       + 96403 x28 + 105615 x29 + 105944 x30 + 105414 x31 + 97944 x32
       + 106937 x33 + 97337 x34 + 107964 x35 + 101000 x36 + 90591 x37
       + 93576 x38 + 96862 x39 + 92274 x40 + 106860 x41 + 107318 x42
       + 92093 x43 + 93604 x44 + 91254 x45 + 109293 x46 + 100144 x47
       + 95846 x48 + 106001 x49 + 91580 x50 + 96977 x51 + 105227 x52
       + 99006 x53 + 107907 x54 + 108677 x55 + 100097 x56 + 96574 x57
       + 95991 x58 + 90400 x59 + 100275 x60 + 106047 x61 + 96475 x62
       + 90398 x63 + 94927 x64 + 109348 x65 + 107055 x66 + 96613 x67
       + 95832 x68 + 95774 x69 + 104287 x70 + 97092 x71 + 100919 x72
       + 102841 x73 + 104669 x74 + 105612 x75 + 91216 x76 + 97213 x77
       + 102195 x78 + 103103 x79 + 98718 x80 + 101664 x81 + 104077 x82
       + 104919 x83 + 106810 x84 + 101124 x85 + 103771 x86 + 96385 x87
       + 98228 x88 + 106401 x89 + 105314 x90 + 107583 x91 + 106669 x92
       + 94041 x93 + 108566 x94 + 90977 x95 + 109076 x96 + 91262 x97
       + 96233 x98 + 98829 x99 + 102242 x100 + 96039 x101 + 90486 x102
       + 91226 x103 + 99564 x104 + 94122 x105 + 109425 x106 + 100148 x107
       + 101607 x108 + 97147 x109 + 91881 x110 + 90131 x111 + 97618 x112
       + 99008 x113 + 92724 x114 + 91920 x115 + 104178 x116 + 91226 x117
       + 100319 x118 + 101903 x119 + 101928 x120 + 91587 x121 + 91153 x122
       + 109979 x123 + 93817 x124 + 96494 x125 + 99247 x126 + 95832 x127
       + 94076 x128 + 90437 x129 + 94135 x130 + 94645 x131 + 107424 x132
       + 106770 x133 + 91348 x134 + 96132 x135 + 109596 x136 + 107641 x137
       + 90972 x138 + 104216 x139 + 104206 x140 + 100613 x141 + 102208 x142
       + 104797 x143 + 92184 x144 + 104036 x145 + 98111 x146 + 101721 x147
       + 95764 x148 + 102248 x149 + 91929 x150 + 100224 x151 + 105762 x152
       + 96993 x153 + 96307 x154 + 102772 x155 + 103598 x156 + 92438 x157
       + 107108 x158 + 103512 x159 + 92785 x160 + 107702 x161 + 104731 x162
       + 104407 x163 + 98565 x164 + 93071 x165 + 107536 x166 + 108675 x167
       + 98882 x168 + 93860 x169 + 104341 x170 + 95290 x171 + 95104 x172
       + 99369 x173 + 95959 x174 + 102059 x175 + 96670 x176 + 93450 x177
       + 109354 x178 + 104210 x179 + 100283 x180 + 91316 x181 + 90319 x182
       + 90640 x183 + 108833 x184 + 102771 x185 + 93697 x186 + 98089 x187
       + 102062 x188 + 95432 x189 + 97255 x190 + 99872 x191 + 91667 x192
       + 91793 x193 + 94410 x194 + 104215 x195 + 90646 x196 + 105864 x197
       + 97268 x198 + 108254 x199 + 95180 x200 + 101162 x201 + 105142 x202
       + 95345 x203 + 95870 x204 + 99978 x205 + 108786 x206 + 98663 x207
       + 93044 x208 + 98450 x209 + 91735 x210 + 95311 x211 + 100715 x212
       + 93998 x213 + 105450 x214 + 95023 x215 + 99438 x216 + 104392 x217
       + 95961 x218 + 98024 x219 + 109575 x220 + 90985 x221 + 106233 x222
       + 97748 x223 + 103373 x224 + 92593 x225 + 90748 x226 + 95818 x227
       + 96766 x228 + 91045 x229 + 96567 x230 + 99082 x231 + 99995 x232
       + 104613 x233 + 108643 x234 + 101485 x235 + 99853 x236 + 101313 x237
       + 106199 x238 + 97151 x239 + 95811 x240 + 97263 x241 + 108332 x242
       + 94464 x243 + 92578 x244 + 109795 x245 + 109953 x246 + 96178 x247
       + 93479 x248 + 94629 x249 + 100370 x250 + 98682 x251 + 96462 x252
       + 97329 x253 + 93874 x254 + 109679 x255 + 99075 x256 + 109315 x257
       + 92274 x258 + 106395 x259 + 103580 x260 + 108934 x261 + 91914 x262
       + 104901 x263 + 102176 x264 + 107580 x265 + 90433 x266 + 97123 x267
       + 109605 x268 + 100731 x269 + 95569 x270 + 97221 x271 + 100192 x272
       + 93838 x273 + 100422 x274 + 104367 x275 + 96201 x276 + 98601 x277
       + 92214 x278 + 99921 x279 + 94895 x280 + 96456 x281 + 104919 x282
       + 93544 x283 + 92802 x284 + 102995 x285 + 90055 x286 + 95046 x287
       + 107413 x288 + 99551 x289 + 104460 x290 + 96563 x291 + 108914 x292
       + 106330 x293 + 99086 x294 + 103124 x295 + 97540 x296 + 95238 x297
       + 98612 x298 + 108755 x299 + 95754 x300 + 108676 x301 + 95786 x302
       + 90157 x303 + 98838 x304 + 101080 x305 + 92590 x306 + 103033 x307
       + 93753 x308 + 104735 x309 + 90120 x310 + 99837 x311 + 107645 x312
       + 106008 x313 + 107283 x314 + 96141 x315 + 100548 x316 + 90346 x317
       + 94142 x318 + 104273 x319 + 96298 x320 + 97673 x321 + 108703 x322
       + 102034 x323 + 101568 x324 + 90668 x325 + 109314 x326 + 94597 x327
       + 109547 x328 + 96541 x329 + 97854 x330 + 99706 x331 + 90274 x332
       + 92160 x333 + 108952 x334 + 98415 x335 + 104959 x336 + 102213 x337
       + 96084 x338 + 106202 x339 + 102585 x340 + 90628 x341 + 96695 x342
       + 92651 x343 + 103684 x344 + 106542 x345 + 105368 x346 + 91810 x347
       + 108360 x348 + 97870 x349 + 106590 x350 + 99853 x351 + 103476 x352
       + 107896 x353 + 96814 x354 + 91892 x355 + 107392 x356 + 103261 x357
       + 99262 x358 + 105560 x359 + 99692 x360 + 98086 x361 + 91593 x362
       + 93601 x363 + 99277 x364 + 104960 x365 + 96931 x366 + 105542 x367
       + 95275 x368 + 92043 x369 + 103512 x370 + 98438 x371 + 106670 x372
       + 103222 x373 + 109859 x374 + 96477 x375 + 90493 x376 + 92741 x377
       + 109861 x378 + 93657 x379 + 105521 x380 + 98863 x381 + 98084 x382
       + 92711 x383 + 95346 x384 + 101529 x385 + 96280 x386 + 95187 x387
       + 103061 x388 + 106616 x389 + 104484 x390 + 93191 x391 + 95527 x392
       + 99126 x393 + 99374 x394 + 103346 x395 + 97228 x396 + 92953 x397
       + 92415 x398 + 109115 x399 + 96403 x400 + 95831 x401 + 100778 x402
       + 98968 x403 + 109442 x404 + 104669 x405 + 95176 x406 + 104699 x407
       + 93454 x408 + 108651 x409 + 90463 x410 + 96787 x411 + 101478 x412
       + 105354 x413 + 97227 x414 + 101783 x415 + 99968 x416 + 108546 x417
       + 95587 x418 + 90513 x419 + 94002 x420 + 92069 x421 + 105996 x422
       + 96245 x423 + 109071 x424 + 109364 x425 + 96673 x426 + 98215 x427
       + 91193 x428 + 96165 x429 + 108094 x430 + 94421 x431 + 108437 x432
       + 106212 x433 + 106272 x434 + 109241 x435 + 104781 x436 + 108878 x437
       + 105363 x438 + 107490 x439 + 108537 x440 + 98519 x441 + 92206 x442
       + 99817 x443 + 99809 x444 + 104551 x445 + 91506 x446 + 102590 x447
       + 109666 x448 + 96584 x449 + 104575 x450 + 98473 x451 + 96848 x452
       + 90402 x453 + 104293 x454 + 93187 x455 + 107863 x456 + 92603 x457
       + 104215 x458 + 103771 x459 + 101956 x460 + 94400 x461 + 100781 x462
       + 104173 x463 + 93709 x464 + 98378 x465 + 94105 x466 + 95102 x467
       + 92930 x468 + 95945 x469 + 105074 x470 + 96815 x471 + 104001 x472
       + 107737 x473 + 104287 x474 + 105872 x475 + 105011 x476 + 94438 x477
       + 91833 x478 + 109887 x479 + 100744 x480 + 93030 x481 + 95800 x482
       + 93720 x483 + 98315 x484 + 96929 x485 + 95892 x486 + 95772 x487
       + 100933 x488 + 91929 x489 + 102037 x490 + 106006 x491 + 95660 x492
       + 93538 x493 + 106946 x494 + 95056 x495 + 105878 x496 + 102614 x497
       + 93920 x498 + 106524 x499 + 91768 x500 + 97235 x501 + 95232 x502
       + 96300 x503 + 105952 x504 + 95100 x505 + 101856 x506 + 94175 x507
       + 101913 x508 + 93197 x509 + 96717 x510 + 90978 x511 + 104206 x512
       + 105884 x513 + 105036 x514 + 94202 x515 + 108771 x516 + 92530 x517
       + 97409 x518 + 100374 x519 + 91479 x520 + 91526 x521 + 103933 x522
       + 103417 x523 + 103538 x524 + 98738 x525 + 100992 x526 + 94815 x527
       + 103528 x528 + 105364 x529 + 96229 x530 + 93602 x531 + 97527 x532
       + 102684 x533 + 101813 x534 + 92036 x535 + 91183 x536 + 109333 x537
       + 91244 x538 + 96268 x539 + 100582 x540 + 102340 x541 + 97833 x542
       + 102960 x543 + 96998 x544 + 107621 x545 + 93900 x546 + 106773 x547
       + 97625 x548 + 99634 x549 + 95607 x550 + 106698 x551 + 92554 x552
       + 99639 x553 + 97363 x554 + 91114 x555 + 100863 x556 + 102620 x557
       + 96571 x558 + 109544 x559 + 108964 x560 + 90516 x561 + 101605 x562
       + 107712 x563 + 108600 x564 + 108273 x565 + 95560 x566 + 109593 x567
       + 103798 x568 + 95934 x569 + 107827 x570 + 96427 x571 + 100312 x572
       + 108660 x573 + 109939 x574 + 104086 x575 + 100817 x576 + 105745 x577
       + 92177 x578 + 92254 x579 + 104445 x580 + 109594 x581 + 93025 x582
       + 91530 x583 + 90214 x584 + 106120 x585 + 104882 x586 + 107892 x587
       + 90462 x588 + 99099 x589 + 106290 x590 + 97865 x591 + 92647 x592
       + 102799 x593 + 93497 x594 + 102287 x595 + 105657 x596 + 99530 x597
       + 102276 x598 + 101769 x599 + 267410 x600 + 38389 x601 + 39909 x602
       + 43482 x603 + 36824 x604 + 42137 x605 + 42463 x606 + 42703 x607
       + 42540 x608 + 36288 x609 + 42015 x610 + 37491 x611 + 41304 x612
       + 41976 x613 + 43744 x614 + 42367 x615 + 43621 x616 + 38161 x617
       + 42767 x618 + 39900 x619 + 36449 x620 + 36984 x621 + 37163 x622
       + 36708 x623 + 36405 x624 + 38244 x625 + 37314 x626 + 38618 x627
       + 38568 x628 + 37906 x629 + 42516 x630 + 43893 x631 + 36224 x632
       + 38667 x633 + 40328 x634 + 41836 x635 + 43810 x636 + 40402 x637
       + 43339 x638 + 41276 x639 + 42910 x640 + 42870 x641 + 36109 x642
       + 43432 x643 + 37579 x644 + 36431 x645 + 37730 x646 + 40279 x647
       + 38357 x648 + 36532 x649 + 37014 x650 + 43043 x651 + 42264 x652
       + 42578 x653 + 39543 x654 + 41619 x655 + 42672 x656 + 43381 x657
       + 38822 x658 + 40652 x659 + 31452 x660
Subject To
 c1:   - x13 - x28 - x30 + x34 - x35 + x41 - x50 + x58 - x60  = 1
 c2:   - x73 - x88 - x90 + x94 - x95 + x101 - x110 + x118 - x120  = 0
 c3:   - x133 - x148 - x150 + x154 - x155 + x161 - x170 + x178 - x180  = 0
 c4:   - x193 - x208 - x210 + x214 - x215 + x221 - x230 + x238 - x240  = -1
 c5:   - x253 - x268 - x270 + x274 - x275 + x281 - x290 + x298 - x300  = 0
 c6:   - x313 - x328 - x330 + x334 - x335 + x341 - x350 + x358 - x360  = 0
 c7:   - x373 - x388 - x390 + x394 - x395 + x401 - x410 + x418 - x420  = 0
 c8:   - x433 - x448 - x450 + x454 - x455 + x461 - x470 + x478 - x480  = 0
 c9:   - x493 - x508 - x510 + x514 - x515 + x521 - x530 + x538 - x540  = 0
 c10:  - x553 - x568 - x570 + x574 - x575 + x581 - x590 + x598 - x600  = 0
 c11:  - x5 - x7 + x26 - x34 + x37 + x38 + x39 - x55 - x57  = 0
 c12:  - x65 - x67 + x86 - x94 + x97 + x98 + x99 - x115 - x117  = 0
 c13:  - x125 - x127 + x146 - x154 + x157 + x158 + x159 - x175 - x177  = 0
 c14:  - x185 - x187 + x206 - x214 + x217 + x218 + x219 - x235 - x237  = 1
 c15:  - x245 - x247 + x266 - x274 + x277 + x278 + x279 - x295 - x297  = 1
 c16:  - x305 - x307 + x326 - x334 + x337 + x338 + x339 - x355 - x357  = 0
 c17:  - x365 - x367 + x386 - x394 + x397 + x398 + x399 - x415 - x417  = 0
 c18:  - x425 - x427 + x446 - x454 + x457 + x458 + x459 - x475 - x477  = 0
 c19:  - x485 - x487 + x506 - x514 + x517 + x518 + x519 - x535 - x537  = 0
 c20:  - x545 - x547 + x566 - x574 + x577 + x578 + x579 - x595 - x597  = 0
 c21:  - x4 - x11 - x15 - x18 + x31 + x50 + x53 + x56  = 0
 c22:  - x64 - x71 - x75 - x78 + x91 + x110 + x113 + x116  = 1
 c23:  - x124 - x131 - x135 - x138 + x151 + x170 + x173 + x176  = 1
 c24:  - x184 - x191 - x195 - x198 + x211 + x230 + x233 + x236  = 0
 c25:  - x244 - x251 - x255 - x258 + x271 + x290 + x293 + x296  = 0
 c26:  - x304 - x311 - x315 - x318 + x331 + x350 + x353 + x356  = 0
 c27:  - x364 - x371 - x375 - x378 + x391 + x410 + x413 + x416  = 0
 c28:  - x424 - x431 - x435 - x438 + x451 + x470 + x473 + x476  = 0
 c29:  - x484 - x491 - x495 - x498 + x511 + x530 + x533 + x536  = 0
 c30:  - x544 - x551 - x555 - x558 + x571 + x590 + x593 + x596  = 0
 c31:  - x17 + x23 - x29 - x45 - x48 - x56 - x59  = 0
 c32:  - x77 + x83 - x89 - x105 - x108 - x116 - x119  = -1
 c33:  - x137 + x143 - x149 - x165 - x168 - x176 - x179  = 0
 c34:  - x197 + x203 - x209 - x225 - x228 - x236 - x239  = 0
 c35:  - x257 + x263 - x269 - x285 - x288 - x296 - x299  = 0
 c36:  - x317 + x323 - x329 - x345 - x348 - x356 - x359  = 0
 c37:  - x377 + x383 - x389 - x405 - x408 - x416 - x419  = 0
 c38:  - x437 + x443 - x449 - x465 - x468 - x476 - x479  = 0
 c39:  - x497 + x503 - x509 - x525 - x528 - x536 - x539  = 0
 c40:  - x557 + x563 - x569 - x585 - x588 - x596 - x599  = 0
 c41:  - x1 - x2 + x4 + x20 - x23 - x26 - x32 + x35 + x42  = 0
 c42:  - x61 - x62 + x64 + x80 - x83 - x86 - x92 + x95 + x102  = 0
 c43:  - x121 - x122 + x124 + x140 - x143 - x146 - x152 + x155 + x162  = 0
 c44:  - x181 - x182 + x184 + x200 - x203 - x206 - x212 + x215 + x222  = 0
 c45:  - x241 - x242 + x244 + x260 - x263 - x266 - x272 + x275 + x282  = 0
 c46:  - x301 - x302 + x304 + x320 - x323 - x326 - x332 + x335 + x342  = 0
 c47:  - x361 - x362 + x364 + x380 - x383 - x386 - x392 + x395 + x402  = -1
 c48:  - x421 - x422 + x424 + x440 - x443 - x446 - x452 + x455 + x462  = 0
 c49:  - x481 - x482 + x484 + x500 - x503 - x506 - x512 + x515 + x522  = 1
 c50:  - x541 - x542 + x544 + x560 - x563 - x566 - x572 + x575 + x582  = 0
 c51:  - x8 + x10 + x16 - x37 - x47 + x51 - x52 + x59  = 0
 c52:  - x68 + x70 + x76 - x97 - x107 + x111 - x112 + x119  = 0
 c53:  - x128 + x130 + x136 - x157 - x167 + x171 - x172 + x179  = -1
 c54:  - x188 + x190 + x196 - x217 - x227 + x231 - x232 + x239  = 0
 c55:  - x248 + x250 + x256 - x277 - x287 + x291 - x292 + x299  = 0
 c56:  - x308 + x310 + x316 - x337 - x347 + x351 - x352 + x359  = 0
 c57:  - x368 + x370 + x376 - x397 - x407 + x411 - x412 + x419  = 0
 c58:  - x428 + x430 + x436 - x457 - x467 + x471 - x472 + x479  = 0
 c59:  - x488 + x490 + x496 - x517 - x527 + x531 - x532 + x539  = -1
 c60:  - x548 + x550 + x556 - x577 - x587 + x591 - x592 + x599  = 0
 c61:  x12 - x14 - x21 - x24 + x29 + x47 - x49 + x57  = 0
 c62:  x72 - x74 - x81 - x84 + x89 + x107 - x109 + x117  = 0
 c63:  x132 - x134 - x141 - x144 + x149 + x167 - x169 + x177  = 0
 c64:  x192 - x194 - x201 - x204 + x209 + x227 - x229 + x237  = 0
 c65:  x252 - x254 - x261 - x264 + x269 + x287 - x289 + x297  = 0
 c66:  x312 - x314 - x321 - x324 + x329 + x347 - x349 + x357  = 0
 c67:  x372 - x374 - x381 - x384 + x389 + x407 - x409 + x417  = 0
 c68:  x432 - x434 - x441 - x444 + x449 + x467 - x469 + x477  = 0
 c69:  x492 - x494 - x501 - x504 + x509 + x527 - x529 + x537  = 0
 c70:  x552 - x554 - x561 - x564 + x569 + x587 - x589 + x597  = 0
 c71:  x8 + x21 + x27 + x32 - x39 + x40 - x43 - x51  = 0
 c72:  x68 + x81 + x87 + x92 - x99 + x100 - x103 - x111  = 0
 c73:  x128 + x141 + x147 + x152 - x159 + x160 - x163 - x171  = 0
 c74:  x188 + x201 + x207 + x212 - x219 + x220 - x223 - x231  = 0
 c75:  x248 + x261 + x267 + x272 - x279 + x280 - x283 - x291  = 0
 c76:  x308 + x321 + x327 + x332 - x339 + x340 - x343 - x351  = -1
 c77:  x368 + x381 + x387 + x392 - x399 + x400 - x403 - x411  = 0
 c78:  x428 + x441 + x447 + x452 - x459 + x460 - x463 - x471  = 0
 c79:  x488 + x501 + x507 + x512 - x519 + x520 - x523 - x531  = 0
 c80:  x548 + x561 + x567 + x572 - x579 + x580 - x583 - x591  = -1
 c81:  - x6 + x11 + x19 - x20 + x49 + x55  = 0
 c82:  - x66 + x71 + x79 - x80 + x109 + x115  = 0
 c83:  - x126 + x131 + x139 - x140 + x169 + x175  = 0
 c84:  - x186 + x191 + x199 - x200 + x229 + x235  = 0
 c85:  - x246 + x251 + x259 - x260 + x289 + x295  = 0
 c86:  - x306 + x311 + x319 - x320 + x349 + x355  = 0
 c87:  - x366 + x371 + x379 - x380 + x409 + x415  = 0
 c88:  - x426 + x431 + x439 - x440 + x469 + x475  = 0
 c89:  - x486 + x491 + x499 - x500 + x529 + x535  = 0
 c90:  - x546 + x551 + x559 - x560 + x589 + x595  = 1
 c91:  x6 + x30 + x33 - x40 + x45  = -1
 c92:  x66 + x90 + x93 - x100 + x105  = 0
 c93:  x126 + x150 + x153 - x160 + x165  = 0
 c94:  x186 + x210 + x213 - x220 + x225  = 0
 c95:  x246 + x270 + x273 - x280 + x285  = 0
 c96:  x306 + x330 + x333 - x340 + x345  = 0
 c97:  x366 + x390 + x393 - x400 + x405  = 0
 c98:  x426 + x450 + x453 - x460 + x465  = 0
 c99:  x486 + x510 + x513 - x520 + x525  = 0
 c100: x546 + x570 + x573 - x580 + x585  = 0
 c101: x1 + x5 + x14 + x18 - x22 - x25 - x38 - x41 - x44 + x46  = 0
 c102: x61 + x65 + x74 + x78 - x82 - x85 - x98 - x101 - x104 + x106  = 0
 c103: x121 + x125 + x134 + x138 - x142 - x145 - x158 - x161 - x164 + x166  = 0
 c104: x181 + x185 + x194 + x198 - x202 - x205 - x218 - x221 - x224 + x226  = 0
 c105: x241 + x245 + x254 + x258 - x262 - x265 - x278 - x281 - x284 + x286  = 0
 c106: x301 + x305 + x314 + x318 - x322 - x325 - x338 - x341 - x344 + x346  = 0
 c107: x361 + x365 + x374 + x378 - x382 - x385 - x398 - x401 - x404 + x406  = 1
 c108: x421 + x425 + x434 + x438 - x442 - x445 - x458 - x461 - x464 + x466  = 0
 c109: x481 + x485 + x494 + x498 - x502 - x505 - x518 - x521 - x524 + x526  = 0
 c110: x541 + x545 + x554 + x558 - x562 - x565 - x578 - x581 - x584 + x586  = 0
 c111: - x3 - x9 - x19 + x22 - x31 - x36 - x46 - x58  = 0
 c112: - x63 - x69 - x79 + x82 - x91 - x96 - x106 - x118  = 0
 c113: - x123 - x129 - x139 + x142 - x151 - x156 - x166 - x178  = 0
 c114: - x183 - x189 - x199 + x202 - x211 - x216 - x226 - x238  = 0
 c115: - x243 - x249 - x259 + x262 - x271 - x276 - x286 - x298  = -1
 c116: - x303 - x309 - x319 + x322 - x331 - x336 - x346 - x358  = 0
 c117: - x363 - x369 - x379 + x382 - x391 - x396 - x406 - x418  = 0
 c118: - x423 - x429 - x439 + x442 - x451 - x456 - x466 - x478  = -1
 c119: - x483 - x489 - x499 + x502 - x511 - x516 - x526 - x538  = 0
 c120: - x543 - x549 - x559 + x562 - x571 - x576 - x586 - x598  = 0
 c121: x7 + x9 + x13 - x16 + x24 - x42 + x44 + x48 + x52 - x53 - x54  = 0
 c122: x67 + x69 + x73 - x76 + x84 - x102 + x104 + x108 + x112 - x113 - x114
        = 0
 c123: x127 + x129 + x133 - x136 + x144 - x162 + x164 + x168 + x172 - x173
       - x174  = 0
 c124: x187 + x189 + x193 - x196 + x204 - x222 + x224 + x228 + x232 - x233
       - x234  = 0
 c125: x247 + x249 + x253 - x256 + x264 - x282 + x284 + x288 + x292 - x293
       - x294  = 0
 c126: x307 + x309 + x313 - x316 + x324 - x342 + x344 + x348 + x352 - x353
       - x354  = 0
 c127: x367 + x369 + x373 - x376 + x384 - x402 + x404 + x408 + x412 - x413
       - x414  = 0
 c128: x427 + x429 + x433 - x436 + x444 - x462 + x464 + x468 + x472 - x473
       - x474  = 1
 c129: x487 + x489 + x493 - x496 + x504 - x522 + x524 + x528 + x532 - x533
       - x534  = 0
 c130: x547 + x549 + x553 - x556 + x564 - x582 + x584 + x588 + x592 - x593
       - x594  = 0
 c131: x3 - x10 + x17 - x27 + x28 + x43  = 0
 c132: x63 - x70 + x77 - x87 + x88 + x103  = 0
 c133: x123 - x130 + x137 - x147 + x148 + x163  = 0
 c134: x183 - x190 + x197 - x207 + x208 + x223  = 0
 c135: x243 - x250 + x257 - x267 + x268 + x283  = 0
 c136: x303 - x310 + x317 - x327 + x328 + x343  = 1
 c137: x363 - x370 + x377 - x387 + x388 + x403  = 0
 c138: x423 - x430 + x437 - x447 + x448 + x463  = 0
 c139: x483 - x490 + x497 - x507 + x508 + x523  = 0
 c140: x543 - x550 + x557 - x567 + x568 + x583  = 0
 c141: x2 - x12 + x15 + x25 - x33 + x36 + x54 + x60  = 0
 c142: x62 - x72 + x75 + x85 - x93 + x96 + x114 + x120  = 0
 c143: x122 - x132 + x135 + x145 - x153 + x156 + x174 + x180  = 0
 c144: x182 - x192 + x195 + x205 - x213 + x216 + x234 + x240  = 0
 c145: x242 - x252 + x255 + x265 - x273 + x276 + x294 + x300  = 0
 c146: x302 - x312 + x315 + x325 - x333 + x336 + x354 + x360  = 0
 c147: x362 - x372 + x375 + x385 - x393 + x396 + x414 + x420  = 0
 c148: x422 - x432 + x435 + x445 - x453 + x456 + x474 + x480  = 0
 c149: x482 - x492 + x495 + x505 - x513 + x516 + x534 + x540  = 0
 c150: x542 - x552 + x555 + x565 - x573 + x576 + x594 + x600  = 0
 c151: 4 x1 + 4 x61 + 4 x121 + 4 x181 + 4 x241 + 4 x301 + 4 x361 + 4 x421
       + 4 x481 + 4 x541 - 20 x601 <= 0
 c152: 4 x2 + 4 x62 + 4 x122 + 4 x182 + 4 x242 + 4 x302 + 4 x362 + 4 x422
       + 4 x482 + 4 x542 - 18 x602 <= 0
 c153: 4 x3 + 4 x63 + 4 x123 + 4 x183 + 4 x243 + 4 x303 + 4 x363 + 4 x423
       + 4 x483 + 4 x543 - 19 x603 <= 0
 c154: 4 x4 + 4 x64 + 4 x124 + 4 x184 + 4 x244 + 4 x304 + 4 x364 + 4 x424
       + 4 x484 + 4 x544 - 19 x604 <= 0
 c155: 4 x5 + 4 x65 + 4 x125 + 4 x185 + 4 x245 + 4 x305 + 4 x365 + 4 x425
       + 4 x485 + 4 x545 - 21 x605 <= 0
 c156: 4 x6 + 4 x66 + 4 x126 + 4 x186 + 4 x246 + 4 x306 + 4 x366 + 4 x426
       + 4 x486 + 4 x546 - 20 x606 <= 0
 c157: 4 x7 + 4 x67 + 4 x127 + 4 x187 + 4 x247 + 4 x307 + 4 x367 + 4 x427
       + 4 x487 + 4 x547 - 19 x607 <= 0
 c158: 4 x8 + 4 x68 + 4 x128 + 4 x188 + 4 x248 + 4 x308 + 4 x368 + 4 x428
       + 4 x488 + 4 x548 - 19 x608 <= 0
 c159: 4 x9 + 4 x69 + 4 x129 + 4 x189 + 4 x249 + 4 x309 + 4 x369 + 4 x429
       + 4 x489 + 4 x549 - 21 x609 <= 0
 c160: 4 x10 + 4 x70 + 4 x130 + 4 x190 + 4 x250 + 4 x310 + 4 x370 + 4 x430
       + 4 x490 + 4 x550 - 21 x610 <= 0
 c161: 4 x11 + 4 x71 + 4 x131 + 4 x191 + 4 x251 + 4 x311 + 4 x371 + 4 x431
       + 4 x491 + 4 x551 - 20 x611 <= 0
 c162: 4 x12 + 4 x72 + 4 x132 + 4 x192 + 4 x252 + 4 x312 + 4 x372 + 4 x432
       + 4 x492 + 4 x552 - 21 x612 <= 0
 c163: 4 x13 + 4 x73 + 4 x133 + 4 x193 + 4 x253 + 4 x313 + 4 x373 + 4 x433
       + 4 x493 + 4 x553 - 20 x613 <= 0
 c164: 4 x14 + 4 x74 + 4 x134 + 4 x194 + 4 x254 + 4 x314 + 4 x374 + 4 x434
       + 4 x494 + 4 x554 - 22 x614 <= 0
 c165: 4 x15 + 4 x75 + 4 x135 + 4 x195 + 4 x255 + 4 x315 + 4 x375 + 4 x435
       + 4 x495 + 4 x555 - 18 x615 <= 0
 c166: 4 x16 + 4 x76 + 4 x136 + 4 x196 + 4 x256 + 4 x316 + 4 x376 + 4 x436
       + 4 x496 + 4 x556 - 20 x616 <= 0
 c167: 4 x17 + 4 x77 + 4 x137 + 4 x197 + 4 x257 + 4 x317 + 4 x377 + 4 x437
       + 4 x497 + 4 x557 - 19 x617 <= 0
 c168: 4 x18 + 4 x78 + 4 x138 + 4 x198 + 4 x258 + 4 x318 + 4 x378 + 4 x438
       + 4 x498 + 4 x558 - 22 x618 <= 0
 c169: 4 x19 + 4 x79 + 4 x139 + 4 x199 + 4 x259 + 4 x319 + 4 x379 + 4 x439
       + 4 x499 + 4 x559 - 19 x619 <= 0
 c170: 4 x20 + 4 x80 + 4 x140 + 4 x200 + 4 x260 + 4 x320 + 4 x380 + 4 x440
       + 4 x500 + 4 x560 - 19 x620 <= 0
 c171: 4 x21 + 4 x81 + 4 x141 + 4 x201 + 4 x261 + 4 x321 + 4 x381 + 4 x441
       + 4 x501 + 4 x561 - 20 x621 <= 0
 c172: 4 x22 + 4 x82 + 4 x142 + 4 x202 + 4 x262 + 4 x322 + 4 x382 + 4 x442
       + 4 x502 + 4 x562 - 22 x622 <= 0
 c173: 4 x23 + 4 x83 + 4 x143 + 4 x203 + 4 x263 + 4 x323 + 4 x383 + 4 x443
       + 4 x503 + 4 x563 - 19 x623 <= 0
 c174: 4 x24 + 4 x84 + 4 x144 + 4 x204 + 4 x264 + 4 x324 + 4 x384 + 4 x444
       + 4 x504 + 4 x564 - 19 x624 <= 0
 c175: 4 x25 + 4 x85 + 4 x145 + 4 x205 + 4 x265 + 4 x325 + 4 x385 + 4 x445
       + 4 x505 + 4 x565 - 20 x625 <= 0
 c176: 4 x26 + 4 x86 + 4 x146 + 4 x206 + 4 x266 + 4 x326 + 4 x386 + 4 x446
       + 4 x506 + 4 x566 - 21 x626 <= 0
 c177: 4 x27 + 4 x87 + 4 x147 + 4 x207 + 4 x267 + 4 x327 + 4 x387 + 4 x447
       + 4 x507 + 4 x567 - 20 x627 <= 0
 c178: 4 x28 + 4 x88 + 4 x148 + 4 x208 + 4 x268 + 4 x328 + 4 x388 + 4 x448
       + 4 x508 + 4 x568 - 20 x628 <= 0
 c179: 4 x29 + 4 x89 + 4 x149 + 4 x209 + 4 x269 + 4 x329 + 4 x389 + 4 x449
       + 4 x509 + 4 x569 - 20 x629 <= 0
 c180: 4 x30 + 4 x90 + 4 x150 + 4 x210 + 4 x270 + 4 x330 + 4 x390 + 4 x450
       + 4 x510 + 4 x570 - 21 x630 <= 0
 c181: 4 x31 + 4 x91 + 4 x151 + 4 x211 + 4 x271 + 4 x331 + 4 x391 + 4 x451
       + 4 x511 + 4 x571 - 20 x631 <= 0
 c182: 4 x32 + 4 x92 + 4 x152 + 4 x212 + 4 x272 + 4 x332 + 4 x392 + 4 x452
       + 4 x512 + 4 x572 - 18 x632 <= 0
 c183: 4 x33 + 4 x93 + 4 x153 + 4 x213 + 4 x273 + 4 x333 + 4 x393 + 4 x453
       + 4 x513 + 4 x573 - 19 x633 <= 0
 c184: 4 x34 + 4 x94 + 4 x154 + 4 x214 + 4 x274 + 4 x334 + 4 x394 + 4 x454
       + 4 x514 + 4 x574 - 22 x634 <= 0
 c185: 4 x35 + 4 x95 + 4 x155 + 4 x215 + 4 x275 + 4 x335 + 4 x395 + 4 x455
       + 4 x515 + 4 x575 - 19 x635 <= 0
 c186: 4 x36 + 4 x96 + 4 x156 + 4 x216 + 4 x276 + 4 x336 + 4 x396 + 4 x456
       + 4 x516 + 4 x576 - 19 x636 <= 0
 c187: 4 x37 + 4 x97 + 4 x157 + 4 x217 + 4 x277 + 4 x337 + 4 x397 + 4 x457
       + 4 x517 + 4 x577 - 20 x637 <= 0
 c188: 4 x38 + 4 x98 + 4 x158 + 4 x218 + 4 x278 + 4 x338 + 4 x398 + 4 x458
       + 4 x518 + 4 x578 - 20 x638 <= 0
 c189: 4 x39 + 4 x99 + 4 x159 + 4 x219 + 4 x279 + 4 x339 + 4 x399 + 4 x459
       + 4 x519 + 4 x579 - 20 x639 <= 0
 c190: 4 x40 + 4 x100 + 4 x160 + 4 x220 + 4 x280 + 4 x340 + 4 x400 + 4 x460
       + 4 x520 + 4 x580 - 20 x640 <= 0
 c191: 4 x41 + 4 x101 + 4 x161 + 4 x221 + 4 x281 + 4 x341 + 4 x401 + 4 x461
       + 4 x521 + 4 x581 - 19 x641 <= 0
 c192: 4 x42 + 4 x102 + 4 x162 + 4 x222 + 4 x282 + 4 x342 + 4 x402 + 4 x462
       + 4 x522 + 4 x582 - 19 x642 <= 0
 c193: 4 x43 + 4 x103 + 4 x163 + 4 x223 + 4 x283 + 4 x343 + 4 x403 + 4 x463
       + 4 x523 + 4 x583 - 19 x643 <= 0
 c194: 4 x44 + 4 x104 + 4 x164 + 4 x224 + 4 x284 + 4 x344 + 4 x404 + 4 x464
       + 4 x524 + 4 x584 - 22 x644 <= 0
 c195: 4 x45 + 4 x105 + 4 x165 + 4 x225 + 4 x285 + 4 x345 + 4 x405 + 4 x465
       + 4 x525 + 4 x585 - 21 x645 <= 0
 c196: 4 x46 + 4 x106 + 4 x166 + 4 x226 + 4 x286 + 4 x346 + 4 x406 + 4 x466
       + 4 x526 + 4 x586 - 21 x646 <= 0
 c197: 4 x47 + 4 x107 + 4 x167 + 4 x227 + 4 x287 + 4 x347 + 4 x407 + 4 x467
       + 4 x527 + 4 x587 - 19 x647 <= 0
 c198: 4 x48 + 4 x108 + 4 x168 + 4 x228 + 4 x288 + 4 x348 + 4 x408 + 4 x468
       + 4 x528 + 4 x588 - 20 x648 <= 0
 c199: 4 x49 + 4 x109 + 4 x169 + 4 x229 + 4 x289 + 4 x349 + 4 x409 + 4 x469
       + 4 x529 + 4 x589 - 18 x649 <= 0
 c200: 4 x50 + 4 x110 + 4 x170 + 4 x230 + 4 x290 + 4 x350 + 4 x410 + 4 x470
       + 4 x530 + 4 x590 - 19 x650 <= 0
 c201: 4 x51 + 4 x111 + 4 x171 + 4 x231 + 4 x291 + 4 x351 + 4 x411 + 4 x471
       + 4 x531 + 4 x591 - 22 x651 <= 0
 c202: 4 x52 + 4 x112 + 4 x172 + 4 x232 + 4 x292 + 4 x352 + 4 x412 + 4 x472
       + 4 x532 + 4 x592 - 18 x652 <= 0
 c203: 4 x53 + 4 x113 + 4 x173 + 4 x233 + 4 x293 + 4 x353 + 4 x413 + 4 x473
       + 4 x533 + 4 x593 - 20 x653 <= 0
 c204: 4 x54 + 4 x114 + 4 x174 + 4 x234 + 4 x294 + 4 x354 + 4 x414 + 4 x474
       + 4 x534 + 4 x594 - 18 x654 <= 0
 c205: 4 x55 + 4 x115 + 4 x175 + 4 x235 + 4 x295 + 4 x355 + 4 x415 + 4 x475
       + 4 x535 + 4 x595 - 21 x655 <= 0
 c206: 4 x56 + 4 x116 + 4 x176 + 4 x236 + 4 x296 + 4 x356 + 4 x416 + 4 x476
       + 4 x536 + 4 x596 - 21 x656 <= 0
 c207: 4 x57 + 4 x117 + 4 x177 + 4 x237 + 4 x297 + 4 x357 + 4 x417 + 4 x477
       + 4 x537 + 4 x597 - 20 x657 <= 0
 c208: 4 x58 + 4 x118 + 4 x178 + 4 x238 + 4 x298 + 4 x358 + 4 x418 + 4 x478
       + 4 x538 + 4 x598 - 20 x658 <= 0
 c209: 4 x59 + 4 x119 + 4 x179 + 4 x239 + 4 x299 + 4 x359 + 4 x419 + 4 x479
       + 4 x539 + 4 x599 - 21 x659 <= 0
 c210: 4 x60 + 4 x120 + 4 x180 + 4 x240 + 4 x300 + 4 x360 + 4 x420 + 4 x480
       + 4 x540 + 4 x600 - 26 x660 <= 0
Bounds
 0 <= x1 <= 1
 0 <= x2 <= 1
 0 <= x3 <= 1
 0 <= x4 <= 1
 0 <= x5 <= 1
 0 <= x6 <= 1
 0 <= x7 <= 1
 0 <= x8 <= 1
 0 <= x9 <= 1
 0 <= x10 <= 1
 0 <= x11 <= 1
 0 <= x12 <= 1
 0 <= x13 <= 1
 0 <= x14 <= 1
 0 <= x15 <= 1
 0 <= x16 <= 1
 0 <= x17 <= 1
 0 <= x18 <= 1
 0 <= x19 <= 1
 0 <= x20 <= 1
 0 <= x21 <= 1
 0 <= x22 <= 1
 0 <= x23 <= 1
 0 <= x24 <= 1
 0 <= x25 <= 1
 0 <= x26 <= 1
 0 <= x27 <= 1
 0 <= x28 <= 1
 0 <= x29 <= 1
 0 <= x30 <= 1
 0 <= x31 <= 1
 0 <= x32 <= 1
 0 <= x33 <= 1
 0 <= x34 <= 1
 0 <= x35 <= 1
 0 <= x36 <= 1
 0 <= x37 <= 1
 0 <= x38 <= 1
 0 <= x39 <= 1
 0 <= x40 <= 1
 0 <= x41 <= 1
 0 <= x42 <= 1
 0 <= x43 <= 1
 0 <= x44 <= 1
 0 <= x45 <= 1
 0 <= x46 <= 1
 0 <= x47 <= 1
 0 <= x48 <= 1
 0 <= x49 <= 1
 0 <= x50 <= 1
 0 <= x51 <= 1
 0 <= x52 <= 1
 0 <= x53 <= 1
 0 <= x54 <= 1
 0 <= x55 <= 1
 0 <= x56 <= 1
 0 <= x57 <= 1
 0 <= x58 <= 1
 0 <= x59 <= 1
 0 <= x60 <= 1
 0 <= x61 <= 1
 0 <= x62 <= 1
 0 <= x63 <= 1
 0 <= x64 <= 1
 0 <= x65 <= 1
 0 <= x66 <= 1
 0 <= x67 <= 1
 0 <= x68 <= 1
 0 <= x69 <= 1
 0 <= x70 <= 1
 0 <= x71 <= 1
 0 <= x72 <= 1
 0 <= x73 <= 1
 0 <= x74 <= 1
 0 <= x75 <= 1
 0 <= x76 <= 1
 0 <= x77 <= 1
 0 <= x78 <= 1
 0 <= x79 <= 1
 0 <= x80 <= 1
 0 <= x81 <= 1
 0 <= x82 <= 1
 0 <= x83 <= 1
 0 <= x84 <= 1
 0 <= x85 <= 1
 0 <= x86 <= 1
 0 <= x87 <= 1
 0 <= x88 <= 1
 0 <= x89 <= 1
 0 <= x90 <= 1
 0 <= x91 <= 1
 0 <= x92 <= 1
 0 <= x93 <= 1
 0 <= x94 <= 1
 0 <= x95 <= 1
 0 <= x96 <= 1
 0 <= x97 <= 1
 0 <= x98 <= 1
 0 <= x99 <= 1
 0 <= x100 <= 1
 0 <= x101 <= 1
 0 <= x102 <= 1
 0 <= x103 <= 1
 0 <= x104 <= 1
 0 <= x105 <= 1
 0 <= x106 <= 1
 0 <= x107 <= 1
 0 <= x108 <= 1
 0 <= x109 <= 1
 0 <= x110 <= 1
 0 <= x111 <= 1
 0 <= x112 <= 1
 0 <= x113 <= 1
 0 <= x114 <= 1
 0 <= x115 <= 1
 0 <= x116 <= 1
 0 <= x117 <= 1
 0 <= x118 <= 1
 0 <= x119 <= 1
 0 <= x120 <= 1
 0 <= x121 <= 1
 0 <= x122 <= 1
 0 <= x123 <= 1
 0 <= x124 <= 1
 0 <= x125 <= 1
 0 <= x126 <= 1
 0 <= x127 <= 1
 0 <= x128 <= 1
 0 <= x129 <= 1
 0 <= x130 <= 1
 0 <= x131 <= 1
 0 <= x132 <= 1
 0 <= x133 <= 1
 0 <= x134 <= 1
 0 <= x135 <= 1
 0 <= x136 <= 1
 0 <= x137 <= 1
 0 <= x138 <= 1
 0 <= x139 <= 1
 0 <= x140 <= 1
 0 <= x141 <= 1
 0 <= x142 <= 1
 0 <= x143 <= 1
 0 <= x144 <= 1
 0 <= x145 <= 1
 0 <= x146 <= 1
 0 <= x147 <= 1
 0 <= x148 <= 1
 0 <= x149 <= 1
 0 <= x150 <= 1
 0 <= x151 <= 1
 0 <= x152 <= 1
 0 <= x153 <= 1
 0 <= x154 <= 1
 0 <= x155 <= 1
 0 <= x156 <= 1
 0 <= x157 <= 1
 0 <= x158 <= 1
 0 <= x159 <= 1
 0 <= x160 <= 1
 0 <= x161 <= 1
 0 <= x162 <= 1
 0 <= x163 <= 1
 0 <= x164 <= 1
 0 <= x165 <= 1
 0 <= x166 <= 1
 0 <= x167 <= 1
 0 <= x168 <= 1
 0 <= x169 <= 1
 0 <= x170 <= 1
 0 <= x171 <= 1
 0 <= x172 <= 1
 0 <= x173 <= 1
 0 <= x174 <= 1
 0 <= x175 <= 1
 0 <= x176 <= 1
 0 <= x177 <= 1
 0 <= x178 <= 1
 0 <= x179 <= 1
 0 <= x180 <= 1
 0 <= x181 <= 1
 0 <= x182 <= 1
 0 <= x183 <= 1
 0 <= x184 <= 1
 0 <= x185 <= 1
 0 <= x186 <= 1
 0 <= x187 <= 1
 0 <= x188 <= 1
 0 <= x189 <= 1
 0 <= x190 <= 1
 0 <= x191 <= 1
 0 <= x192 <= 1
 0 <= x193 <= 1
 0 <= x194 <= 1
 0 <= x195 <= 1
 0 <= x196 <= 1
 0 <= x197 <= 1
 0 <= x198 <= 1
 0 <= x199 <= 1
 0 <= x200 <= 1
 0 <= x201 <= 1
 0 <= x202 <= 1
 0 <= x203 <= 1
 0 <= x204 <= 1
 0 <= x205 <= 1
 0 <= x206 <= 1
 0 <= x207 <= 1
 0 <= x208 <= 1
 0 <= x209 <= 1
 0 <= x210 <= 1
 0 <= x211 <= 1
 0 <= x212 <= 1
 0 <= x213 <= 1
 0 <= x214 <= 1
 0 <= x215 <= 1
 0 <= x216 <= 1
 0 <= x217 <= 1
 0 <= x218 <= 1
 0 <= x219 <= 1
 0 <= x220 <= 1
 0 <= x221 <= 1
 0 <= x222 <= 1
 0 <= x223 <= 1
 0 <= x224 <= 1
 0 <= x225 <= 1
 0 <= x226 <= 1
 0 <= x227 <= 1
 0 <= x228 <= 1
 0 <= x229 <= 1
 0 <= x230 <= 1
 0 <= x231 <= 1
 0 <= x232 <= 1
 0 <= x233 <= 1
 0 <= x234 <= 1
 0 <= x235 <= 1
 0 <= x236 <= 1
 0 <= x237 <= 1
 0 <= x238 <= 1
 0 <= x239 <= 1
 0 <= x240 <= 1
 0 <= x241 <= 1
 0 <= x242 <= 1
 0 <= x243 <= 1
 0 <= x244 <= 1
 0 <= x245 <= 1
 0 <= x246 <= 1
 0 <= x247 <= 1
 0 <= x248 <= 1
 0 <= x249 <= 1
 0 <= x250 <= 1
 0 <= x251 <= 1
 0 <= x252 <= 1
 0 <= x253 <= 1
 0 <= x254 <= 1
 0 <= x255 <= 1
 0 <= x256 <= 1
 0 <= x257 <= 1
 0 <= x258 <= 1
 0 <= x259 <= 1
 0 <= x260 <= 1
 0 <= x261 <= 1
 0 <= x262 <= 1
 0 <= x263 <= 1
 0 <= x264 <= 1
 0 <= x265 <= 1
 0 <= x266 <= 1
 0 <= x267 <= 1
 0 <= x268 <= 1
 0 <= x269 <= 1
 0 <= x270 <= 1
 0 <= x271 <= 1
 0 <= x272 <= 1
 0 <= x273 <= 1
 0 <= x274 <= 1
 0 <= x275 <= 1
 0 <= x276 <= 1
 0 <= x277 <= 1
 0 <= x278 <= 1
 0 <= x279 <= 1
 0 <= x280 <= 1
 0 <= x281 <= 1
 0 <= x282 <= 1
 0 <= x283 <= 1
 0 <= x284 <= 1
 0 <= x285 <= 1
 0 <= x286 <= 1
 0 <= x287 <= 1
 0 <= x288 <= 1
 0 <= x289 <= 1
 0 <= x290 <= 1
 0 <= x291 <= 1
 0 <= x292 <= 1
 0 <= x293 <= 1
 0 <= x294 <= 1
 0 <= x295 <= 1
 0 <= x296 <= 1
 0 <= x297 <= 1
 0 <= x298 <= 1
 0 <= x299 <= 1
 0 <= x300 <= 1
 0 <= x301 <= 1
 0 <= x302 <= 1
 0 <= x303 <= 1
 0 <= x304 <= 1
 0 <= x305 <= 1
 0 <= x306 <= 1
 0 <= x307 <= 1
 0 <= x308 <= 1
 0 <= x309 <= 1
 0 <= x310 <= 1
 0 <= x311 <= 1
 0 <= x312 <= 1
 0 <= x313 <= 1
 0 <= x314 <= 1
 0 <= x315 <= 1
 0 <= x316 <= 1
 0 <= x317 <= 1
 0 <= x318 <= 1
 0 <= x319 <= 1
 0 <= x320 <= 1
 0 <= x321 <= 1
 0 <= x322 <= 1
 0 <= x323 <= 1
 0 <= x324 <= 1
 0 <= x325 <= 1
 0 <= x326 <= 1
 0 <= x327 <= 1
 0 <= x328 <= 1
 0 <= x329 <= 1
 0 <= x330 <= 1
 0 <= x331 <= 1
 0 <= x332 <= 1
 0 <= x333 <= 1
 0 <= x334 <= 1
 0 <= x335 <= 1
 0 <= x336 <= 1
 0 <= x337 <= 1
 0 <= x338 <= 1
 0 <= x339 <= 1
 0 <= x340 <= 1
 0 <= x341 <= 1
 0 <= x342 <= 1
 0 <= x343 <= 1
 0 <= x344 <= 1
 0 <= x345 <= 1
 0 <= x346 <= 1
 0 <= x347 <= 1
 0 <= x348 <= 1
 0 <= x349 <= 1
 0 <= x350 <= 1
 0 <= x351 <= 1
 0 <= x352 <= 1
 0 <= x353 <= 1
 0 <= x354 <= 1
 0 <= x355 <= 1
 0 <= x356 <= 1
 0 <= x357 <= 1
 0 <= x358 <= 1
 0 <= x359 <= 1
 0 <= x360 <= 1
 0 <= x361 <= 1
 0 <= x362 <= 1
 0 <= x363 <= 1
 0 <= x364 <= 1
 0 <= x365 <= 1
 0 <= x366 <= 1
 0 <= x367 <= 1
 0 <= x368 <= 1
 0 <= x369 <= 1
 0 <= x370 <= 1
 0 <= x371 <= 1
 0 <= x372 <= 1
 0 <= x373 <= 1
 0 <= x374 <= 1
 0 <= x375 <= 1
 0 <= x376 <= 1
 0 <= x377 <= 1
 0 <= x378 <= 1
 0 <= x379 <= 1
 0 <= x380 <= 1
 0 <= x381 <= 1
 0 <= x382 <= 1
 0 <= x383 <= 1
 0 <= x384 <= 1
 0 <= x385 <= 1
 0 <= x386 <= 1
 0 <= x387 <= 1
 0 <= x388 <= 1
 0 <= x389 <= 1
 0 <= x390 <= 1
 0 <= x391 <= 1
 0 <= x392 <= 1
 0 <= x393 <= 1
 0 <= x394 <= 1
 0 <= x395 <= 1
 0 <= x396 <= 1
 0 <= x397 <= 1
 0 <= x398 <= 1
 0 <= x399 <= 1
 0 <= x400 <= 1
 0 <= x401 <= 1
 0 <= x402 <= 1
 0 <= x403 <= 1
 0 <= x404 <= 1
 0 <= x405 <= 1
 0 <= x406 <= 1
 0 <= x407 <= 1
 0 <= x408 <= 1
 0 <= x409 <= 1
 0 <= x410 <= 1
 0 <= x411 <= 1
 0 <= x412 <= 1
 0 <= x413 <= 1
 0 <= x414 <= 1
 0 <= x415 <= 1
 0 <= x416 <= 1
 0 <= x417 <= 1
 0 <= x418 <= 1
 0 <= x419 <= 1
 0 <= x420 <= 1
 0 <= x421 <= 1
 0 <= x422 <= 1
 0 <= x423 <= 1
 0 <= x424 <= 1
 0 <= x425 <= 1
 0 <= x426 <= 1
 0 <= x427 <= 1
 0 <= x428 <= 1
 0 <= x429 <= 1
 0 <= x430 <= 1
 0 <= x431 <= 1
 0 <= x432 <= 1
 0 <= x433 <= 1
 0 <= x434 <= 1
 0 <= x435 <= 1
 0 <= x436 <= 1
 0 <= x437 <= 1
 0 <= x438 <= 1
 0 <= x439 <= 1
 0 <= x440 <= 1
 0 <= x441 <= 1
 0 <= x442 <= 1
 0 <= x443 <= 1
 0 <= x444 <= 1
 0 <= x445 <= 1
 0 <= x446 <= 1
 0 <= x447 <= 1
 0 <= x448 <= 1
 0 <= x449 <= 1
 0 <= x450 <= 1
 0 <= x451 <= 1
 0 <= x452 <= 1
 0 <= x453 <= 1
 0 <= x454 <= 1
 0 <= x455 <= 1
 0 <= x456 <= 1
 0 <= x457 <= 1
 0 <= x458 <= 1
 0 <= x459 <= 1
 0 <= x460 <= 1
 0 <= x461 <= 1
 0 <= x462 <= 1
 0 <= x463 <= 1
 0 <= x464 <= 1
 0 <= x465 <= 1
 0 <= x466 <= 1
 0 <= x467 <= 1
 0 <= x468 <= 1
 0 <= x469 <= 1
 0 <= x470 <= 1
 0 <= x471 <= 1
 0 <= x472 <= 1
 0 <= x473 <= 1
 0 <= x474 <= 1
 0 <= x475 <= 1
 0 <= x476 <= 1
 0 <= x477 <= 1
 0 <= x478 <= 1
 0 <= x479 <= 1
 0 <= x480 <= 1
 0 <= x481 <= 1
 0 <= x482 <= 1
 0 <= x483 <= 1
 0 <= x484 <= 1
 0 <= x485 <= 1
 0 <= x486 <= 1
 0 <= x487 <= 1
 0 <= x488 <= 1
 0 <= x489 <= 1
 0 <= x490 <= 1
 0 <= x491 <= 1
 0 <= x492 <= 1
 0 <= x493 <= 1
 0 <= x494 <= 1
 0 <= x495 <= 1
 0 <= x496 <= 1
 0 <= x497 <= 1
 0 <= x498 <= 1
 0 <= x499 <= 1
 0 <= x500 <= 1
 0 <= x501 <= 1
 0 <= x502 <= 1
 0 <= x503 <= 1
 0 <= x504 <= 1
 0 <= x505 <= 1
 0 <= x506 <= 1
 0 <= x507 <= 1
 0 <= x508 <= 1
 0 <= x509 <= 1
 0 <= x510 <= 1
 0 <= x511 <= 1
 0 <= x512 <= 1
 0 <= x513 <= 1
 0 <= x514 <= 1
 0 <= x515 <= 1
 0 <= x516 <= 1
 0 <= x517 <= 1
 0 <= x518 <= 1
 0 <= x519 <= 1
 0 <= x520 <= 1
 0 <= x521 <= 1
 0 <= x522 <= 1
 0 <= x523 <= 1
 0 <= x524 <= 1
 0 <= x525 <= 1
 0 <= x526 <= 1
 0 <= x527 <= 1
 0 <= x528 <= 1
 0 <= x529 <= 1
 0 <= x530 <= 1
 0 <= x531 <= 1
 0 <= x532 <= 1
 0 <= x533 <= 1
 0 <= x534 <= 1
 0 <= x535 <= 1
 0 <= x536 <= 1
 0 <= x537 <= 1
 0 <= x538 <= 1
 0 <= x539 <= 1
 0 <= x540 <= 1
 0 <= x541 <= 1
 0 <= x542 <= 1
 0 <= x543 <= 1
 0 <= x544 <= 1
 0 <= x545 <= 1
 0 <= x546 <= 1
 0 <= x547 <= 1
 0 <= x548 <= 1
 0 <= x549 <= 1
 0 <= x550 <= 1
 0 <= x551 <= 1
 0 <= x552 <= 1
 0 <= x553 <= 1
 0 <= x554 <= 1
 0 <= x555 <= 1
 0 <= x556 <= 1
 0 <= x557 <= 1
 0 <= x558 <= 1
 0 <= x559 <= 1
 0 <= x560 <= 1
 0 <= x561 <= 1
 0 <= x562 <= 1
 0 <= x563 <= 1
 0 <= x564 <= 1
 0 <= x565 <= 1
 0 <= x566 <= 1
 0 <= x567 <= 1
 0 <= x568 <= 1
 0 <= x569 <= 1
 0 <= x570 <= 1
 0 <= x571 <= 1
 0 <= x572 <= 1
 0 <= x573 <= 1
 0 <= x574 <= 1
 0 <= x575 <= 1
 0 <= x576 <= 1
 0 <= x577 <= 1
 0 <= x578 <= 1
 0 <= x579 <= 1
 0 <= x580 <= 1
 0 <= x581 <= 1
 0 <= x582 <= 1
 0 <= x583 <= 1
 0 <= x584 <= 1
 0 <= x585 <= 1
 0 <= x586 <= 1
 0 <= x587 <= 1
 0 <= x588 <= 1
 0 <= x589 <= 1
 0 <= x590 <= 1
 0 <= x591 <= 1
 0 <= x592 <= 1
 0 <= x593 <= 1
 0 <= x594 <= 1
 0 <= x595 <= 1
 0 <= x596 <= 1
 0 <= x597 <= 1
 0 <= x598 <= 1
 0 <= x599 <= 1
 0 <= x600 <= 1
 0 <= x601 <= 1
 0 <= x602 <= 1
 0 <= x603 <= 1
 0 <= x604 <= 1
 0 <= x605 <= 1
 0 <= x606 <= 1
 0 <= x607 <= 1
 0 <= x608 <= 1
 0 <= x609 <= 1
 0 <= x610 <= 1
 0 <= x611 <= 1
 0 <= x612 <= 1
 0 <= x613 <= 1
 0 <= x614 <= 1
 0 <= x615 <= 1
 0 <= x616 <= 1
 0 <= x617 <= 1
 0 <= x618 <= 1
 0 <= x619 <= 1
 0 <= x620 <= 1
 0 <= x621 <= 1
 0 <= x622 <= 1
 0 <= x623 <= 1
 0 <= x624 <= 1
 0 <= x625 <= 1
 0 <= x626 <= 1
 0 <= x627 <= 1
 0 <= x628 <= 1
 0 <= x629 <= 1
 0 <= x630 <= 1
 0 <= x631 <= 1
 0 <= x632 <= 1
 0 <= x633 <= 1
 0 <= x634 <= 1
 0 <= x635 <= 1
 0 <= x636 <= 1
 0 <= x637 <= 1
 0 <= x638 <= 1
 0 <= x639 <= 1
 0 <= x640 <= 1
 0 <= x641 <= 1
 0 <= x642 <= 1
 0 <= x643 <= 1
 0 <= x644 <= 1
 0 <= x645 <= 1
 0 <= x646 <= 1
 0 <= x647 <= 1
 0 <= x648 <= 1
 0 <= x649 <= 1
 0 <= x650 <= 1
 0 <= x651 <= 1
 0 <= x652 <= 1
 0 <= x653 <= 1
 0 <= x654 <= 1
 0 <= x655 <= 1
 0 <= x656 <= 1
 0 <= x657 <= 1
 0 <= x658 <= 1
 0 <= x659 <= 1
 0 <= x660 <= 1
Binaries
 x601  x602  x603  x604  x605  x606  x607  x608  x609  x610  x611  x612  x613 
 x614  x615  x616  x617  x618  x619  x620  x621  x622  x623  x624  x625  x626 
 x627  x628  x629  x630  x631  x632  x633  x634  x635  x636  x637  x638  x639 
 x640  x641  x642  x643  x644  x645  x646  x647  x648  x649  x650  x651  x652 
 x653  x654  x655  x656  x657  x658  x659  x660 
End
